gen cost
0 1479
1 1460
2 1443
3 1430
4 1380
5 1339
6 1334
7 1334
8 1323
9 1320
10 1317
11 1266
12 1266
13 1265
14 1258
15 1255
16 1250
17 1250
18 1237
19 1223
20 1216
21 1216
22 1216
23 1203
24 1184
25 1178
26 1168
27 1156
28 1156
29 1156
30 1156
31 1152
32 1152
33 1152
34 1143
35 1140
36 1138
37 1137
38 1137
39 1137
40 1134
41 1123
42 1117
43 1110
44 1110
45 1110
46 1105
47 1095
48 1091
49 1091
